NAME : mr39
COMMENT : 39-city problem (DISC)
TYPE : TSP
DIMENSION : 39
EDGE_WEIGHT_TYPE : EUC_2D
NODE_COORD_SECTION
1 55 85
2 80 44
3 83 48
4 13 72
5 61 85
6 53 12
7 47 62
8 48 23
9 64 4
10 93 29
11 82 30
12 95 14
13 92 73
14 42 21
15 83 80
16 95 73
17 63 35
18 26 22
19 60 24
20 87 11
21 5 94
22 86 55
23 73 90
24 30 89
25 49 2
26 85 87
27 61 31
28 16 95
29 53 2
30 19 98
31 68 82
32 55 32
33 16 30
34 94 42
35 55 34
36 66 96
37 68 44
38 82 31
39 2 70
EOF
